
Gurobi 8.0.1 (linux64, Python) logging started Tue May  7 15:48:04 2019


Gurobi 8.0.1 (linux64, Python) logging started Tue May  7 15:48:32 2019


Gurobi 8.0.1 (linux64, Python) logging started Tue May  7 15:50:17 2019


Gurobi 8.0.1 (linux64, Python) logging started Tue May  7 15:52:43 2019


Gurobi 8.0.1 (linux64, Python) logging started Tue May  7 15:55:10 2019


Gurobi 8.0.1 (linux64, Python) logging started Tue May  7 15:57:57 2019


Gurobi 8.0.1 (linux64, Python) logging started Tue May  7 15:59:39 2019


Gurobi 8.0.1 (linux64, Python) logging started Tue May  7 18:04:52 2019


Gurobi 8.1.1 (win64, Python) logging started 05/08/19 14:23:17


Gurobi 8.1.1 (win64, Python) logging started 05/08/19 14:39:37

Optimize a model with 0 rows, 800 columns and 0 nonzeros
Coefficient statistics:
  Matrix range     [0e+00, 0e+00]
  Objective range  [0e+00, 0e+00]
  Bounds range     [0e+00, 0e+00]
  RHS range        [0e+00, 0e+00]
Presolve removed 0 rows and 800 columns
Presolve time: 0.05s
Presolve: All rows and columns removed
Iteration    Objective       Primal Inf.    Dual Inf.      Time
       0   -0.0000000e+00   0.000000e+00   0.000000e+00      0s

Solved in 0 iterations and 0.06 seconds
Optimal objective -0.000000000e+00
Optimize a model with 0 rows, 800 columns and 0 nonzeros
Coefficient statistics:
  Matrix range     [0e+00, 0e+00]
  Objective range  [0e+00, 0e+00]
  Bounds range     [0e+00, 0e+00]
  RHS range        [0e+00, 0e+00]
Presolve removed 0 rows and 800 columns
Presolve time: 0.00s
Presolve: All rows and columns removed
Iteration    Objective       Primal Inf.    Dual Inf.      Time
       0   -0.0000000e+00   0.000000e+00   0.000000e+00      0s

Solved in 0 iterations and 0.00 seconds
Optimal objective -0.000000000e+00
Optimize a model with 0 rows, 800 columns and 0 nonzeros
Coefficient statistics:
  Matrix range     [0e+00, 0e+00]
  Objective range  [0e+00, 0e+00]
  Bounds range     [0e+00, 0e+00]
  RHS range        [0e+00, 0e+00]
Presolve removed 0 rows and 800 columns
Presolve time: 0.00s
Presolve: All rows and columns removed
Iteration    Objective       Primal Inf.    Dual Inf.      Time
       0   -0.0000000e+00   0.000000e+00   0.000000e+00      0s

Solved in 0 iterations and 0.00 seconds
Optimal objective -0.000000000e+00
Optimize a model with 0 rows, 800 columns and 0 nonzeros
Coefficient statistics:
  Matrix range     [0e+00, 0e+00]
  Objective range  [0e+00, 0e+00]
  Bounds range     [0e+00, 0e+00]
  RHS range        [0e+00, 0e+00]
Presolve removed 0 rows and 800 columns
Presolve time: 0.00s
Presolve: All rows and columns removed
Iteration    Objective       Primal Inf.    Dual Inf.      Time
       0   -0.0000000e+00   0.000000e+00   0.000000e+00      0s

Solved in 0 iterations and 0.00 seconds
Optimal objective -0.000000000e+00
Optimize a model with 0 rows, 800 columns and 0 nonzeros
Coefficient statistics:
  Matrix range     [0e+00, 0e+00]
  Objective range  [0e+00, 0e+00]
  Bounds range     [0e+00, 0e+00]
  RHS range        [0e+00, 0e+00]
Presolve removed 0 rows and 800 columns
Presolve time: 0.00s
Presolve: All rows and columns removed
Iteration    Objective       Primal Inf.    Dual Inf.      Time
       0   -0.0000000e+00   0.000000e+00   0.000000e+00      0s

Solved in 0 iterations and 0.00 seconds
Optimal objective -0.000000000e+00

Gurobi 8.1.1 (win64, Python) logging started 05/08/19 15:04:00


Gurobi 8.1.1 (win64, Python) logging started 05/08/19 15:07:58

Optimize a model with 1282401 rows, 1280000 columns and 5756799 nonzeros
Variable types: 0 continuous, 1280000 integer (0 binary)
Coefficient statistics:
  Matrix range     [1e+00, 8e+02]
  Objective range  [3e+00, 3e+00]
  Bounds range     [0e+00, 0e+00]
  RHS range        [1e+00, 8e+02]
Optimize a model with 1601 rows, 1280000 columns and 1280799 nonzeros
Variable types: 0 continuous, 1280000 integer (0 binary)
Coefficient statistics:
  Matrix range     [1e+00, 1e+00]
  Objective range  [3e+00, 3e+00]
  Bounds range     [0e+00, 0e+00]
  RHS range        [1e+00, 8e+02]
Optimize a model with 161 rows, 12800 columns and 12879 nonzeros
Variable types: 0 continuous, 12800 integer (0 binary)
Coefficient statistics:
  Matrix range     [1e+00, 1e+00]
  Objective range  [0e+00, 0e+00]
  Bounds range     [0e+00, 0e+00]
  RHS range        [1e+00, 8e+01]
Optimize a model with 161 rows, 12800 columns and 12879 nonzeros
Variable types: 0 continuous, 12800 integer (0 binary)
Coefficient statistics:
  Matrix range     [1e+00, 1e+00]
  Objective range  [0e+00, 0e+00]
  Bounds range     [0e+00, 0e+00]
  RHS range        [1e+00, 8e+01]
Optimize a model with 13041 rows, 12800 columns and 57279 nonzeros
Variable types: 0 continuous, 12800 integer (0 binary)
Coefficient statistics:
  Matrix range     [1e+00, 8e+01]
  Objective range  [0e+00, 0e+00]
  Bounds range     [0e+00, 0e+00]
  RHS range        [1e+00, 8e+01]
Optimize a model with 13041 rows, 12800 columns and 57279 nonzeros
Variable types: 0 continuous, 12800 integer (12800 binary)
Coefficient statistics:
  Matrix range     [1e+00, 8e+01]
  Objective range  [0e+00, 0e+00]
  Bounds range     [1e+00, 1e+00]
  RHS range        [1e+00, 8e+01]
Optimize a model with 13041 rows, 12800 columns and 57279 nonzeros
Variable types: 0 continuous, 12800 integer (12800 binary)
Coefficient statistics:
  Matrix range     [1e+00, 8e+01]
  Objective range  [0e+00, 0e+00]
  Bounds range     [1e+00, 1e+00]
  RHS range        [1e+00, 8e+01]
Optimize a model with 153 rows, 128 columns and 543 nonzeros
Variable types: 0 continuous, 128 integer (128 binary)
Coefficient statistics:
  Matrix range     [1e+00, 8e+00]
  Objective range  [0e+00, 0e+00]
  Bounds range     [1e+00, 1e+00]
  RHS range        [1e+00, 7e+00]
Presolve removed 88 rows and 36 columns
Presolve time: 0.03s

Explored 0 nodes (0 simplex iterations) in 0.10 seconds
Thread count was 1 (of 8 available processors)

Solution count 0

Model is infeasible
Best objective -, best bound -, gap -
Optimize a model with 153 rows, 128 columns and 543 nonzeros
Variable types: 0 continuous, 128 integer (128 binary)
Coefficient statistics:
  Matrix range     [1e+00, 8e+00]
  Objective range  [0e+00, 0e+00]
  Bounds range     [1e+00, 1e+00]
  RHS range        [1e+00, 7e+00]
Presolve removed 88 rows and 36 columns
Presolve time: 0.00s

Explored 0 nodes (0 simplex iterations) in 0.00 seconds
Thread count was 1 (of 8 available processors)

Solution count 0

Model is infeasible
Best objective -, best bound -, gap -
Optimize a model with 153 rows, 128 columns and 543 nonzeros
Variable types: 0 continuous, 128 integer (128 binary)
Coefficient statistics:
  Matrix range     [1e+00, 8e+00]
  Objective range  [0e+00, 0e+00]
  Bounds range     [1e+00, 1e+00]
  RHS range        [1e+00, 7e+00]
Presolve removed 88 rows and 36 columns
Presolve time: 0.00s

Explored 0 nodes (0 simplex iterations) in 0.00 seconds
Thread count was 1 (of 8 available processors)

Solution count 0

Model is infeasible
Best objective -, best bound -, gap -
Optimize a model with 561 rows, 512 columns and 2239 nonzeros
Variable types: 0 continuous, 512 integer (512 binary)
Coefficient statistics:
  Matrix range     [1e+00, 2e+01]
  Objective range  [0e+00, 0e+00]
  Bounds range     [1e+00, 1e+00]
  RHS range        [1e+00, 2e+01]
Presolve removed 304 rows and 76 columns
Presolve time: 0.00s

Explored 0 nodes (0 simplex iterations) in 0.01 seconds
Thread count was 1 (of 8 available processors)

Solution count 0

Model is infeasible
Best objective -, best bound -, gap -
Optimize a model with 561 rows, 512 columns and 2239 nonzeros
Variable types: 0 continuous, 512 integer (512 binary)
Coefficient statistics:
  Matrix range     [1e+00, 2e+01]
  Objective range  [0e+00, 0e+00]
  Bounds range     [1e+00, 1e+00]
  RHS range        [1e+00, 2e+01]
Presolve removed 304 rows and 76 columns
Presolve time: 0.00s

Explored 0 nodes (0 simplex iterations) in 0.00 seconds
Thread count was 1 (of 8 available processors)

Solution count 0

Model is infeasible
Best objective -, best bound -, gap -
Optimize a model with 13041 rows, 12800 columns and 57279 nonzeros
Variable types: 0 continuous, 12800 integer (12800 binary)
Coefficient statistics:
  Matrix range     [1e+00, 8e+01]
  Objective range  [0e+00, 0e+00]
  Bounds range     [1e+00, 1e+00]
  RHS range        [1e+00, 8e+01]
Optimize a model with 3321 rows, 3200 columns and 14239 nonzeros
Variable types: 0 continuous, 3200 integer (3200 binary)
Coefficient statistics:
  Matrix range     [1e+00, 4e+01]
  Objective range  [0e+00, 0e+00]
  Bounds range     [1e+00, 1e+00]
  RHS range        [1e+00, 4e+01]
Optimize a model with 2145 rows, 2048 columns and 9087 nonzeros
Variable types: 0 continuous, 2048 integer (2048 binary)
Coefficient statistics:
  Matrix range     [1e+00, 3e+01]
  Objective range  [0e+00, 0e+00]
  Bounds range     [1e+00, 1e+00]
  RHS range        [1e+00, 3e+01]
Optimize a model with 2145 rows, 2048 columns and 9087 nonzeros
Variable types: 0 continuous, 2048 integer (2048 binary)
Coefficient statistics:
  Matrix range     [1e+00, 3e+01]
  Objective range  [0e+00, 0e+00]
  Bounds range     [1e+00, 1e+00]
  RHS range        [1e+00, 3e+01]
Optimize a model with 1225 rows, 1152 columns and 5087 nonzeros
Variable types: 0 continuous, 1152 integer (1152 binary)
Coefficient statistics:
  Matrix range     [1e+00, 2e+01]
  Objective range  [0e+00, 0e+00]
  Bounds range     [1e+00, 1e+00]
  RHS range        [1e+00, 2e+01]
Presolve removed 648 rows and 116 columns
Presolve time: 0.00s

Explored 0 nodes (0 simplex iterations) in 0.01 seconds
Thread count was 1 (of 8 available processors)

Solution count 0

Model is infeasible
Best objective -, best bound -, gap -
Optimize a model with 1225 rows, 1152 columns and 5087 nonzeros
Variable types: 0 continuous, 1152 integer (1152 binary)
Coefficient statistics:
  Matrix range     [1e+00, 2e+01]
  Objective range  [0e+00, 0e+00]
  Bounds range     [1e+00, 1e+00]
  RHS range        [1e+00, 2e+01]
Presolve removed 648 rows and 116 columns
Presolve time: 0.00s

Explored 0 nodes (0 simplex iterations) in 0.00 seconds
Thread count was 1 (of 8 available processors)

Solution count 0

Model is infeasible
Best objective -, best bound -, gap -
Optimize a model with 1177 rows, 1152 columns and 4902 nonzeros
Variable types: 0 continuous, 1152 integer (1152 binary)
Coefficient statistics:
  Matrix range     [1e+00, 2e+01]
  Objective range  [0e+00, 0e+00]
  Bounds range     [1e+00, 1e+00]
  RHS range        [1e+00, 2e+01]
Presolve removed 577 rows and 47 columns
Presolve time: 0.08s
Presolved: 600 rows, 1105 columns, 4257 nonzeros
Variable types: 0 continuous, 1105 integer (1105 binary)

Root relaxation: infeasible, 63 iterations, 0.03 seconds

    Nodes    |    Current Node    |     Objective Bounds      |     Work
 Expl Unexpl |  Obj  Depth IntInf | Incumbent    BestBd   Gap | It/Node Time

     0     0 infeasible    0               - infeasible      -     -    0s

Explored 0 nodes (63 simplex iterations) in 0.32 seconds
Thread count was 8 (of 8 available processors)

Solution count 0

Model is infeasible
Best objective -, best bound -, gap -
Optimize a model with 1130 rows, 1152 columns and 4855 nonzeros
Variable types: 0 continuous, 1152 integer (1152 binary)
Coefficient statistics:
  Matrix range     [1e+00, 2e+01]
  Objective range  [0e+00, 0e+00]
  Bounds range     [1e+00, 1e+00]
  RHS range        [1e+00, 2e+01]
Presolve removed 530 rows and 47 columns
Presolve time: 0.00s
Presolved: 600 rows, 1105 columns, 4257 nonzeros
Variable types: 0 continuous, 1105 integer (1105 binary)

Root relaxation: infeasible, 63 iterations, 0.00 seconds

    Nodes    |    Current Node    |     Objective Bounds      |     Work
 Expl Unexpl |  Obj  Depth IntInf | Incumbent    BestBd   Gap | It/Node Time

     0     0 infeasible    0               - infeasible      -     -    0s

Explored 0 nodes (63 simplex iterations) in 0.03 seconds
Thread count was 8 (of 8 available processors)

Solution count 0

Model is infeasible
Best objective -, best bound -, gap -
Optimize a model with 1130 rows, 1152 columns and 4855 nonzeros
Variable types: 0 continuous, 1152 integer (1152 binary)
Coefficient statistics:
  Matrix range     [1e+00, 2e+01]
  Objective range  [0e+00, 0e+00]
  Bounds range     [1e+00, 1e+00]
  RHS range        [1e+00, 2e+01]
Presolve removed 530 rows and 70 columns
Presolve time: 0.01s

Explored 0 nodes (0 simplex iterations) in 0.01 seconds
Thread count was 1 (of 8 available processors)

Solution count 0

Model is infeasible
Best objective -, best bound -, gap -
Optimize a model with 1107 rows, 1152 columns and 3820 nonzeros
Variable types: 0 continuous, 1152 integer (1152 binary)
Coefficient statistics:
  Matrix range     [1e+00, 2e+01]
  Objective range  [0e+00, 0e+00]
  Bounds range     [1e+00, 1e+00]
  RHS range        [1e+00, 2e+01]
Presolve removed 1036 rows and 576 columns
Presolve time: 0.00s

Explored 0 nodes (0 simplex iterations) in 0.01 seconds
Thread count was 1 (of 8 available processors)

Solution count 0

Model is infeasible
Best objective -, best bound -, gap -
Optimize a model with 1107 rows, 1152 columns and 3820 nonzeros
Variable types: 0 continuous, 1152 integer (1152 binary)
Coefficient statistics:
  Matrix range     [1e+00, 2e+01]
  Objective range  [0e+00, 0e+00]
  Bounds range     [1e+00, 1e+00]
  RHS range        [1e+00, 2e+01]
Presolve removed 1036 rows and 576 columns
Presolve time: 0.00s

Explored 0 nodes (0 simplex iterations) in 0.01 seconds
Thread count was 1 (of 8 available processors)

Solution count 0

Model is infeasible
Best objective -, best bound -, gap -
Optimize a model with 1130 rows, 1152 columns and 4855 nonzeros
Variable types: 0 continuous, 1152 integer (1152 binary)
Coefficient statistics:
  Matrix range     [1e+00, 2e+01]
  Objective range  [0e+00, 0e+00]
  Bounds range     [1e+00, 1e+00]
  RHS range        [1e+00, 2e+01]
Presolve removed 530 rows and 70 columns
Presolve time: 0.00s

Explored 0 nodes (0 simplex iterations) in 0.01 seconds
Thread count was 1 (of 8 available processors)

Solution count 0

Model is infeasible
Best objective -, best bound -, gap -
Optimize a model with 1130 rows, 1152 columns and 4855 nonzeros
Variable types: 0 continuous, 1152 integer (1152 binary)
Coefficient statistics:
  Matrix range     [1e+00, 2e+01]
  Objective range  [1e+00, 1e+00]
  Bounds range     [1e+00, 1e+00]
  RHS range        [1e+00, 2e+01]
Presolve removed 530 rows and 70 columns
Presolve time: 0.00s

Explored 0 nodes (0 simplex iterations) in 0.01 seconds
Thread count was 1 (of 8 available processors)

Solution count 0

Model is infeasible
Best objective -, best bound -, gap -
Optimize a model with 1130 rows, 1152 columns and 4855 nonzeros
Variable types: 0 continuous, 1152 integer (576 binary)
Coefficient statistics:
  Matrix range     [1e+00, 2e+01]
  Objective range  [1e+00, 1e+00]
  Bounds range     [1e+00, 1e+00]
  RHS range        [1e+00, 2e+01]
Presolve removed 529 rows and 71 columns
Presolve time: 0.02s
Presolved: 601 rows, 1081 columns, 4255 nonzeros
Variable types: 0 continuous, 1081 integer (552 binary)

Root relaxation: objective 2.400000e+01, 589 iterations, 0.01 seconds

    Nodes    |    Current Node    |     Objective Bounds      |     Work
 Expl Unexpl |  Obj  Depth IntInf | Incumbent    BestBd   Gap | It/Node Time

     0     0   24.00000    0   70          -   24.00000      -     -    0s
     0     0   24.00000    0  116          -   24.00000      -     -    0s
     0     0 infeasible    0               - infeasible      -     -    0s

Cutting planes:
  Gomory: 10
  MIR: 16

Explored 1 nodes (1287 simplex iterations) in 0.14 seconds
Thread count was 8 (of 8 available processors)

Solution count 0

Model is infeasible
Best objective -, best bound -, gap -
Optimize a model with 1130 rows, 1152 columns and 4855 nonzeros
Variable types: 576 continuous, 576 integer (576 binary)
Coefficient statistics:
  Matrix range     [1e+00, 2e+01]
  Objective range  [1e+00, 1e+00]
  Bounds range     [1e+00, 1e+00]
  RHS range        [1e+00, 2e+01]
Presolve removed 529 rows and 71 columns
Presolve time: 0.04s
Presolved: 601 rows, 1081 columns, 4255 nonzeros
Variable types: 529 continuous, 552 integer (552 binary)

Root relaxation: objective 2.400000e+01, 437 iterations, 0.01 seconds

    Nodes    |    Current Node    |     Objective Bounds      |     Work
 Expl Unexpl |  Obj  Depth IntInf | Incumbent    BestBd   Gap | It/Node Time

     0     0   24.00000    0   35          -   24.00000      -     -    0s
     0     0   24.00000    0   71          -   24.00000      -     -    0s
     0     0 infeasible    0               - infeasible      -     -    0s

Cutting planes:
  Gomory: 6
  MIR: 2
  Network: 2

Explored 1 nodes (3321 simplex iterations) in 0.17 seconds
Thread count was 8 (of 8 available processors)

Solution count 0

Model is infeasible
Best objective -, best bound -, gap -
Optimize a model with 1130 rows, 1152 columns and 4855 nonzeros
Variable types: 576 continuous, 576 integer (576 binary)
Coefficient statistics:
  Matrix range     [1e+00, 2e+01]
  Objective range  [1e+00, 1e+00]
  Bounds range     [1e+00, 1e+00]
  RHS range        [1e+00, 2e+01]
Presolve removed 782 rows and 71 columns
Presolve time: 0.02s
Presolved: 348 rows, 1081 columns, 3243 nonzeros
Variable types: 529 continuous, 552 integer (552 binary)

Root relaxation: objective 2.400000e+01, 316 iterations, 0.00 seconds

    Nodes    |    Current Node    |     Objective Bounds      |     Work
 Expl Unexpl |  Obj  Depth IntInf | Incumbent    BestBd   Gap | It/Node Time

     0     0   24.00000    0    4          -   24.00000      -     -    0s
     0     0   24.00000    0   11          -   24.00000      -     -    0s
H    0     0                      24.0000000   24.00000  0.00%     -    0s

Cutting planes:
  Gomory: 1

Explored 1 nodes (1857 simplex iterations) in 0.08 seconds
Thread count was 8 (of 8 available processors)

Solution count 1: 24 

Optimal solution found (tolerance 1.00e-04)
Best objective 2.400000000000e+01, best bound 2.400000000000e+01, gap 0.0000%

Gurobi 8.1.1 (win64, Python) logging started 05/08/19 18:18:49

Optimize a model with 1130 rows, 1152 columns and 4855 nonzeros
Variable types: 576 continuous, 576 integer (576 binary)
Coefficient statistics:
  Matrix range     [1e+00, 2e+01]
  Objective range  [1e+00, 1e+00]
  Bounds range     [1e+00, 1e+00]
  RHS range        [1e+00, 2e+01]
Presolve removed 782 rows and 71 columns
Presolve time: 0.02s
Presolved: 348 rows, 1081 columns, 3243 nonzeros
Variable types: 529 continuous, 552 integer (552 binary)

Root relaxation: objective 2.400000e+01, 316 iterations, 0.01 seconds

    Nodes    |    Current Node    |     Objective Bounds      |     Work
 Expl Unexpl |  Obj  Depth IntInf | Incumbent    BestBd   Gap | It/Node Time

     0     0   24.00000    0    4          -   24.00000      -     -    0s
     0     0   24.00000    0   11          -   24.00000      -     -    0s
H    0     0                      24.0000000   24.00000  0.00%     -    0s

Cutting planes:
  Gomory: 1

Explored 1 nodes (1857 simplex iterations) in 0.08 seconds
Thread count was 8 (of 8 available processors)

Solution count 1: 24 

Optimal solution found (tolerance 1.00e-04)
Best objective 2.400000000000e+01, best bound 2.400000000000e+01, gap 0.0000%

Gurobi 8.1.1 (win64, Python) logging started 05/08/19 18:24:55

Optimize a model with 1130 rows, 1152 columns and 4855 nonzeros
Variable types: 576 continuous, 576 integer (576 binary)
Coefficient statistics:
  Matrix range     [1e+00, 2e+01]
  Objective range  [1e+00, 1e+00]
  Bounds range     [1e+00, 1e+00]
  RHS range        [1e+00, 2e+01]
Presolve removed 782 rows and 71 columns
Presolve time: 0.02s
Presolved: 348 rows, 1081 columns, 3243 nonzeros
Variable types: 529 continuous, 552 integer (552 binary)

Root relaxation: objective 2.400000e+01, 316 iterations, 0.01 seconds

    Nodes    |    Current Node    |     Objective Bounds      |     Work
 Expl Unexpl |  Obj  Depth IntInf | Incumbent    BestBd   Gap | It/Node Time

     0     0   24.00000    0    4          -   24.00000      -     -    0s
     0     0   24.00000    0   11          -   24.00000      -     -    0s
H    0     0                      24.0000000   24.00000  0.00%     -    0s

Cutting planes:
  Gomory: 1

Explored 1 nodes (1857 simplex iterations) in 0.08 seconds
Thread count was 8 (of 8 available processors)

Solution count 1: 24 

Optimal solution found (tolerance 1.00e-04)
Best objective 2.400000000000e+01, best bound 2.400000000000e+01, gap 0.0000%

Gurobi 8.1.1 (win64, Python) logging started 05/08/19 18:34:46

Optimize a model with 1130 rows, 1152 columns and 4855 nonzeros
Variable types: 576 continuous, 576 integer (576 binary)
Coefficient statistics:
  Matrix range     [1e+00, 2e+01]
  Objective range  [0e+00, 0e+00]
  Bounds range     [1e+00, 1e+00]
  RHS range        [1e+00, 2e+01]
Presolve removed 782 rows and 71 columns
Presolve time: 0.01s
Presolved: 348 rows, 1081 columns, 3243 nonzeros
Variable types: 529 continuous, 552 integer (552 binary)

Root relaxation: objective -0.000000e+00, 211 iterations, 0.00 seconds

    Nodes    |    Current Node    |     Objective Bounds      |     Work
 Expl Unexpl |  Obj  Depth IntInf | Incumbent    BestBd   Gap | It/Node Time

*    0     0               0      -0.0000000   -0.00000  0.00%     -    0s

Explored 0 nodes (1905 simplex iterations) in 0.05 seconds
Thread count was 8 (of 8 available processors)

Solution count 1: -0 

Optimal solution found (tolerance 1.00e-04)
Best objective -0.000000000000e+00, best bound -0.000000000000e+00, gap 0.0000%
Optimize a model with 2018 rows, 2048 columns and 8775 nonzeros
Variable types: 1024 continuous, 1024 integer (1024 binary)
Coefficient statistics:
  Matrix range     [1e+00, 3e+01]
  Objective range  [0e+00, 0e+00]
  Bounds range     [1e+00, 1e+00]
  RHS range        [1e+00, 3e+01]
Optimize a model with 2018 rows, 2048 columns and 8775 nonzeros
Variable types: 1024 continuous, 1024 integer (1024 binary)
Coefficient statistics:
  Matrix range     [1e+00, 3e+01]
  Objective range  [0e+00, 0e+00]
  Bounds range     [1e+00, 1e+00]
  RHS range        [1e+00, 3e+01]
Optimize a model with 1130 rows, 1152 columns and 4855 nonzeros
Variable types: 576 continuous, 576 integer (576 binary)
Coefficient statistics:
  Matrix range     [1e+00, 2e+01]
  Objective range  [0e+00, 0e+00]
  Bounds range     [1e+00, 1e+00]
  RHS range        [1e+00, 2e+01]
Presolve removed 782 rows and 71 columns
Presolve time: 0.01s
Presolved: 348 rows, 1081 columns, 3243 nonzeros
Variable types: 529 continuous, 552 integer (552 binary)

Root relaxation: objective -0.000000e+00, 177 iterations, 0.00 seconds

    Nodes    |    Current Node    |     Objective Bounds      |     Work
 Expl Unexpl |  Obj  Depth IntInf | Incumbent    BestBd   Gap | It/Node Time

     0     0   -0.00000    0   10          -   -0.00000      -     -    0s
     0     0   -0.00000    0   21          -   -0.00000      -     -    0s
*    0     0               0      -0.0000000   -0.00000  0.00%     -    0s

Cutting planes:
  Gomory: 2
  MIR: 1
  GUB cover: 5

Explored 1 nodes (2285 simplex iterations) in 0.13 seconds
Thread count was 8 (of 8 available processors)

Solution count 1: -0 

Optimal solution found (tolerance 1.00e-04)
Best objective -0.000000000000e+00, best bound -0.000000000000e+00, gap 0.0000%
